500 50
87 16
38 3
49 1
216 83
174 60
224 100
94 22
209 41
166 58
94 78
42 51
89 17
30 50
184 46
75 47
34 93
197 66
198 72
49 6
144 75
67 39
152 51
170 65
30 60
218 58
175 60
89 77
97 60
148 13
42 90
57 51
54 90
220 48
25 65
247 92
116 25
97 39
73 77
107 73
217 17
195 65
174 36
40 30
157 89
224 60
69 9
213 27
122 47
161 22
59 83
